109 89 156 165 135 170 39 92 78 27 124 167 70 60 154 30 74 188 187 42 11 10 33 117 81 115 111 58 83 59 184 139 193 178 149 162 107 51 176 161 38 9 177 86 54 31 136 93 141 113 47 190 197 45 133 105 134 98 63 67 75 18 185 52 64 132 160 123 157 126 194 46 17 12 34 172 14 49 101 153 168 80 57 35 62 179 36 158 140 196 152 144 182 116 69 61 1 137 180 166 120 88 15 199 171 29 131 96 106 103 53 102 130 151 189 22 175 129 32 155 20 66 43 50 87 2 68 84 82 5 128 114 3 127 146 169 25 55 77 13 163 159 121 198 65 99 143 73 108 183 94 150 71 79 148 138 7 23 112 0 181 56 19 26 24 173 6 41 192 44 95 48 142 122 191 85 16 119 164 118 174 125 110 37 28 72 100 145 195 90 147 97 186 21 76 91 8 40 104 4 

